0 0 4 1 0 9 5 5 0 -1 
5 7 -1 10 4 5 3 5 0 -1 
4 2 3 -1 8 -1 7 7 3 -1 
1 7 9 9 5 10 0 10 7 -1 
2 8 2 7 10 4 2 1 6 -1 
1 9 0 2 6 10 9 -1 -1 -1 
6 7 1 1 8 9 2 9 -1 -1 
9 7 7 9 3 4 4 3 10 -1 
7 2 1 -1 2 9 8 4 7 -1 
5 5 1 10 0 3 8 2 9 -1 
5 1 9 1 -1 1 7 6 3 -1 
-1 10 3 0 5 5 0 4 5 -1 
2 8 3 8 3 7 5 10 3 -1 
3 -1 3 -1 2 10 7 6 2 -1 
1 7 3 2 0 9 0 5 8 -1 
4 2 7 6 0 2 -1 9 6 -1 
7 5 -1 6 4 -1 10 10 10 -1 
2 2 9 10 7 5 7 2 5 -1 
8 9 9 7 3 0 9 7 2 -1 
10 1 3 -1 6 2 7 4 4 -1 
4 5 9 2 7 7 2 4 3 -1 
0 10 -1 -1 1 2 4 4 2 -1 
5 3 4 6 10 1 4 1 0 -1 
-1 2 1 5 5 -1 9 5 9 -1 
10 0 6 10 0 2 -1 4 -1 -1 
2 10 -1 1 -1 -1 8 3 4 -1 
8 7 3 -1 1 9 8 5 3 -1 
1 4 4 0 10 5 9 -1 0 -1 
7 4 9 -1 3 -1 10 5 7 -1 
7 6 7 -1 -1 7 2 9 4 -1 
